$RunGauss 
%NProcShared=40 
%Mem=15GB
#b3lyp/6-311G** EmpiricalDispersion=GD3 counterpoise=2

BTBT dimer b3lyp/6-311G** 

0 1 0 1 0 1
S     1.6203193262720827     0.9333401805326346     -0.9655543417648225     1
S     -1.620321504598735     -0.9333388825699676     0.9655526072710489     1
C     0.7607010874676289     0.43204661397155997     -3.5964890672963397     1
C     -0.19901452334363057     -0.09708117976364095     -4.456605143989376     1
C     -1.3358730483939008     -0.7617409166445286     -3.9518894628529058     1
C     -1.5484008838449876     -0.8661903563930526     -2.58171320689255     1
C     1.548398109335089     0.866196593028477     2.5817133719708383     1
C     1.3358706775561753     0.7617432743645128     3.951889267098004     1
C     0.19901582998282433     0.09707763412375259     4.456605564507998     1
C     -0.7606973501029619     -0.43205502481048846     3.5964887592424986     1
C     -0.5418750743386082     -0.34671555743923627     2.213672213873291     1
C     0.5874862400967746     0.34629270790787875     1.6917199634307594     1
C     0.5677107081262889     0.30358960446563144     0.26293046084319327     1
C     -0.5677107915495075     -0.3035871418589736     -0.26293027984204415     1
C     -0.5874867399029438     -0.3462921765045876     -1.6917195197701054     1
C     0.5418798052269354     0.346711324999707     -2.213671057369623     1
H     1.6351619757370348     0.9441051054692121     -3.989241924895111     1
H     -2.069015814970823     -1.16856644084711     -4.6425298943736735     1
H     -2.423263223742232     -1.3822247760329835     -2.1937042880785897     1
H     2.4232592384643064     1.3822352091162877     2.193705084027483     1
H     2.069008168232779     1.1685767873482058     4.642530177164096     1
H     0.048937735877673236     0.028246412732371825     5.530313340218296     1
H     -1.6351576368485852     -0.9441151195158152     3.989239611204613     1
H     -0.048932311065960375     -0.028253874871953768     -5.530312232923615     1
S     1.304680673727917     4.968340180532635     -0.9655543417648225     2
S     4.545321504598735     3.101661117430033     0.9655526072710489     2
C     2.164298912532371     4.46704661397156     -3.5964890672963397     2
C     3.1240145233436305     3.937918820236359     -4.456605143989376     2
C     4.260873048393901     3.2732590833554713     -3.9518894628529058     2
C     4.473400883844987     3.1688096436069477     -2.58171320689255     2
C     1.376601890664911     4.901196593028477     2.5817133719708383     2
C     1.5891293224438245     4.796743274364513     3.951889267098004     2
C     2.7259841700171754     4.132077634123752     4.456605564507998     2
C     3.685697350102962     3.6029449751895117     3.5964887592424986     2
C     3.466875074338608     3.688284442560764     2.213672213873291     2
C     2.337513759903225     4.381292707907879     1.6917199634307594     2
C     2.3572892918737107     4.338589604465632     0.26293046084319327     2
C     3.4927107915495075     3.7314128581410264     -0.26293027984204415     2
C     3.5124867399029434     3.6887078234954127     -1.6917195197701054     2
C     2.3831201947730642     4.381711324999707     -2.213671057369623     2
H     1.289838024262965     4.979105105469213     -3.989241924895111     2
H     4.9940158149708225     2.86643355915289     -4.6425298943736735     2
H     5.348263223742231     2.6527752239670166     -2.1937042880785897     2
H     0.5017407615356935     5.417235209116288     2.193705084027483     2
H     0.8559918317672208     5.203576787348206     4.642530177164096     2
H     2.876062264122327     4.063246412732372     5.530313340218296     2
H     4.560157636848585     3.090884880484185     3.989239611204613     2
H     2.97393231106596     4.006746125128046     -5.530312232923615     2


