$RunGauss 
%NProcShared=40 
%Mem=15GB
#b3lyp/6-311G** EmpiricalDispersion=GD3 counterpoise=2

BTBT dimer b3lyp/6-311G** 

0 1 0 1 0 1
S     1.6203193262720827     0.9333401805326346     -0.9655543417648225     1
S     -1.620321504598735     -0.9333388825699676     0.9655526072710489     1
C     0.7607010874676289     0.43204661397155997     -3.5964890672963397     1
C     -0.19901452334363057     -0.09708117976364095     -4.456605143989376     1
C     -1.3358730483939008     -0.7617409166445286     -3.9518894628529058     1
C     -1.5484008838449876     -0.8661903563930526     -2.58171320689255     1
C     1.548398109335089     0.866196593028477     2.5817133719708383     1
C     1.3358706775561753     0.7617432743645128     3.951889267098004     1
C     0.19901582998282433     0.09707763412375259     4.456605564507998     1
C     -0.7606973501029619     -0.43205502481048846     3.5964887592424986     1
C     -0.5418750743386082     -0.34671555743923627     2.213672213873291     1
C     0.5874862400967746     0.34629270790787875     1.6917199634307594     1
C     0.5677107081262889     0.30358960446563144     0.26293046084319327     1
C     -0.5677107915495075     -0.3035871418589736     -0.26293027984204415     1
C     -0.5874867399029438     -0.3462921765045876     -1.6917195197701054     1
C     0.5418798052269354     0.346711324999707     -2.213671057369623     1
H     1.6351619757370348     0.9441051054692121     -3.989241924895111     1
H     -2.069015814970823     -1.16856644084711     -4.6425298943736735     1
H     -2.423263223742232     -1.3822247760329835     -2.1937042880785897     1
H     2.4232592384643064     1.3822352091162877     2.193705084027483     1
H     2.069008168232779     1.1685767873482058     4.642530177164096     1
H     0.048937735877673236     0.028246412732371825     5.530313340218296     1
H     -1.6351576368485852     -0.9441151195158152     3.989239611204613     1
H     -0.048932311065960375     -0.028253874871953768     -5.530312232923615     1
S     -4.555319326272083     4.938340180532634     -0.9655543417648225     2
S     -1.3146784954012651     3.0716611174300326     0.9655526072710489     2
C     -3.695701087467629     4.43704661397156     -3.5964890672963397     2
C     -2.7359854766563694     3.907918820236359     -4.456605143989376     2
C     -1.5991269516060993     3.243259083355471     -3.9518894628529058     2
C     -1.3865991161550124     3.1388096436069475     -2.58171320689255     2
C     -4.483398109335089     4.871196593028477     2.5817133719708383     2
C     -4.270870677556175     4.766743274364512     3.951889267098004     2
C     -3.1340158299828245     4.102077634123752     4.456605564507998     2
C     -2.1743026498970384     3.5729449751895115     3.5964887592424986     2
C     -2.393124925661392     3.6582844425607637     2.213672213873291     2
C     -3.5224862400967747     4.351292707907879     1.6917199634307594     2
C     -3.5027107081262887     4.308589604465631     0.26293046084319327     2
C     -2.3672892084504924     3.701412858141026     -0.26293027984204415     2
C     -2.347513260097056     3.6587078234954125     -1.6917195197701054     2
C     -3.476879805226935     4.351711324999707     -2.213671057369623     2
H     -4.570161975737035     4.949105105469212     -3.989241924895111     2
H     -0.865984185029177     2.8364335591528897     -4.6425298943736735     2
H     -0.5117367762577683     2.6227752239670163     -2.1937042880785897     2
H     -5.358259238464306     5.387235209116287     2.193705084027483     2
H     -5.0040081682327795     5.173576787348206     4.642530177164096     2
H     -2.983937735877673     4.033246412732372     5.530313340218296     2
H     -1.2998423631514149     3.060884880484185     3.989239611204613     2
H     -2.8860676889340398     3.976746125128046     -5.530312232923615     2


