$RunGauss 
%NProcShared=40 
%Mem=15GB
#b3lyp/6-311G** EmpiricalDispersion=GD3 counterpoise=2

BTBT dimer b3lyp/6-311G** 

0 1 0 1 0 1
S     1.6203193262720827     0.9333401805326346     -0.9655543417648225     1
S     -1.620321504598735     -0.9333388825699676     0.9655526072710489     1
C     0.7607010874676289     0.43204661397155997     -3.5964890672963397     1
C     -0.19901452334363057     -0.09708117976364095     -4.456605143989376     1
C     -1.3358730483939008     -0.7617409166445286     -3.9518894628529058     1
C     -1.5484008838449876     -0.8661903563930526     -2.58171320689255     1
C     1.548398109335089     0.866196593028477     2.5817133719708383     1
C     1.3358706775561753     0.7617432743645128     3.951889267098004     1
C     0.19901582998282433     0.09707763412375259     4.456605564507998     1
C     -0.7606973501029619     -0.43205502481048846     3.5964887592424986     1
C     -0.5418750743386082     -0.34671555743923627     2.213672213873291     1
C     0.5874862400967746     0.34629270790787875     1.6917199634307594     1
C     0.5677107081262889     0.30358960446563144     0.26293046084319327     1
C     -0.5677107915495075     -0.3035871418589736     -0.26293027984204415     1
C     -0.5874867399029438     -0.3462921765045876     -1.6917195197701054     1
C     0.5418798052269354     0.346711324999707     -2.213671057369623     1
H     1.6351619757370348     0.9441051054692121     -3.989241924895111     1
H     -2.069015814970823     -1.16856644084711     -4.6425298943736735     1
H     -2.423263223742232     -1.3822247760329835     -2.1937042880785897     1
H     2.4232592384643064     1.3822352091162877     2.193705084027483     1
H     2.069008168232779     1.1685767873482058     4.642530177164096     1
H     0.048937735877673236     0.028246412732371825     5.530313340218296     1
H     -1.6351576368485852     -0.9441151195158152     3.989239611204613     1
H     -0.048932311065960375     -0.028253874871953768     -5.530312232923615     1
S    1.3296806737279174    -3.0816598194673652    -0.9655543417648225    2
S    4.570321504598735    -4.948338882569967    0.9655526072710489    2
C    2.1892989125323714    -3.5829533860284397    -3.5964890672963397    2
C    3.149014523343631    -4.11208117976364    -4.456605143989376    2
C    4.285873048393901    -4.7767409166445285    -3.9518894628529058    2
C    4.498400883844988    -4.881190356393052    -2.58171320689255    2
C    1.4016018906649113    -3.1488034069715227    2.5817133719708383    2
C    1.614129322443825    -3.2532567256354867    3.951889267098004    2
C    2.7509841700171758    -3.917922365876247    4.456605564507998    2
C    3.7106973501029623    -4.4470550248104885    3.5964887592424986    2
C    3.4918750743386084    -4.361715557439236    2.213672213873291    2
C    2.3625137599032255    -3.668707292092121    1.6917199634307594    2
C    2.382289291873711    -3.7114103955343682    0.26293046084319327    2
C    3.517710791549508    -4.318587141858973    -0.26293027984204415    2
C    3.5374867399029437    -4.361292176504588    -1.6917195197701054    2
C    2.4081201947730646    -3.6682886750002925    -2.213671057369623    2
H    1.3148380242629654    -3.0708948945307877    -3.989241924895111    2
H    5.019015814970823    -5.18356644084711    -4.6425298943736735    2
H    5.3732632237422315    -5.397224776032983    -2.1937042880785897    2
H    0.5267407615356938    -2.632764790883712    2.193705084027483    2
H    0.8809918317672212    -2.8464232126517937    4.642530177164096    2
H    2.901062264122327    -3.986753587267628    5.530313340218296    2
H    4.585157636848585    -4.959115119515815    3.989239611204613    2
H    2.9989323110659605    -4.0432538748719535    -5.530312232923615    2


