$RunGauss 
%NProcShared=40 
%Mem=15GB
#b3lyp/6-311G** EmpiricalDispersion=GD3 counterpoise=2

BTBT dimer b3lyp/6-311G** 

0 1 0 1 0 1
S     1.6203193262720827     0.9333401805326346     -0.9655543417648225     1
S     -1.620321504598735     -0.9333388825699676     0.9655526072710489     1
C     0.7607010874676289     0.43204661397155997     -3.5964890672963397     1
C     -0.19901452334363057     -0.09708117976364095     -4.456605143989376     1
C     -1.3358730483939008     -0.7617409166445286     -3.9518894628529058     1
C     -1.5484008838449876     -0.8661903563930526     -2.58171320689255     1
C     1.548398109335089     0.866196593028477     2.5817133719708383     1
C     1.3358706775561753     0.7617432743645128     3.951889267098004     1
C     0.19901582998282433     0.09707763412375259     4.456605564507998     1
C     -0.7606973501029619     -0.43205502481048846     3.5964887592424986     1
C     -0.5418750743386082     -0.34671555743923627     2.213672213873291     1
C     0.5874862400967746     0.34629270790787875     1.6917199634307594     1
C     0.5677107081262889     0.30358960446563144     0.26293046084319327     1
C     -0.5677107915495075     -0.3035871418589736     -0.26293027984204415     1
C     -0.5874867399029438     -0.3462921765045876     -1.6917195197701054     1
C     0.5418798052269354     0.346711324999707     -2.213671057369623     1
H     1.6351619757370348     0.9441051054692121     -3.989241924895111     1
H     -2.069015814970823     -1.16856644084711     -4.6425298943736735     1
H     -2.423263223742232     -1.3822247760329835     -2.1937042880785897     1
H     2.4232592384643064     1.3822352091162877     2.193705084027483     1
H     2.069008168232779     1.1685767873482058     4.642530177164096     1
H     0.048937735877673236     0.028246412732371825     5.530313340218296     1
H     -1.6351576368485852     -0.9441151195158152     3.989239611204613     1
H     -0.048932311065960375     -0.028253874871953768     -5.530312232923615     1
S     -4.570319326272083     -3.091659819467365     -0.9655543417648225     2
S     -1.3296784954012653     -4.958338882569967     0.9655526072710489     2
C     -3.710701087467629     -3.5929533860284395     -3.5964890672963397     2
C     -2.7509854766563695     -4.12208117976364     -4.456605143989376     2
C     -1.6141269516060994     -4.786740916644528     -3.9518894628529058     2
C     -1.4015991161550125     -4.891190356393052     -2.58171320689255     2
C     -4.498398109335089     -3.1588034069715225     2.5817133719708383     2
C     -4.285870677556176     -3.2632567256354865     3.951889267098004     2
C     -3.1490158299828246     -3.9279223658762468     4.456605564507998     2
C     -2.189302649897038     -4.457055024810488     3.5964887592424986     2
C     -2.408124925661392     -4.371715557439236     2.213672213873291     2
C     -3.537486240096775     -3.678707292092121     1.6917199634307594     2
C     -3.5177107081262893     -3.721410395534368     0.26293046084319327     2
C     -2.3822892084504925     -4.328587141858973     -0.26293027984204415     2
C     -2.3625132600970566     -4.371292176504587     -1.6917195197701054     2
C     -3.4918798052269358     -3.6782886750002923     -2.213671057369623     2
H     -4.585161975737035     -3.0808948945307875     -3.989241924895111     2
H     -0.8809841850291771     -5.19356644084711     -4.6425298943736735     2
H     -0.5267367762577684     -5.407224776032983     -2.1937042880785897     2
H     -5.373259238464307     -2.642764790883712     2.193705084027483     2
H     -5.019008168232779     -2.8564232126517934     4.642530177164096     2
H     -2.998937735877673     -3.996753587267628     5.530313340218296     2
H     -1.314842363151415     -4.9691151195158145     3.989239611204613     2
H     -2.90106768893404     -4.053253874871953     -5.530312232923615     2


