$RunGauss 
%NProcShared=40 
%Mem=15GB
#b3lyp/6-311G** EmpiricalDispersion=GD3 counterpoise=2

BTBT dimer b3lyp/6-311G** 

0 1 0 1 0 1
S     1.6203193262720827     0.9333401805326346     -0.9655543417648225     1
S     -1.620321504598735     -0.9333388825699676     0.9655526072710489     1
C     0.7607010874676289     0.43204661397155997     -3.5964890672963397     1
C     -0.19901452334363057     -0.09708117976364095     -4.456605143989376     1
C     -1.3358730483939008     -0.7617409166445286     -3.9518894628529058     1
C     -1.5484008838449876     -0.8661903563930526     -2.58171320689255     1
C     1.548398109335089     0.866196593028477     2.5817133719708383     1
C     1.3358706775561753     0.7617432743645128     3.951889267098004     1
C     0.19901582998282433     0.09707763412375259     4.456605564507998     1
C     -0.7606973501029619     -0.43205502481048846     3.5964887592424986     1
C     -0.5418750743386082     -0.34671555743923627     2.213672213873291     1
C     0.5874862400967746     0.34629270790787875     1.6917199634307594     1
C     0.5677107081262889     0.30358960446563144     0.26293046084319327     1
C     -0.5677107915495075     -0.3035871418589736     -0.26293027984204415     1
C     -0.5874867399029438     -0.3462921765045876     -1.6917195197701054     1
C     0.5418798052269354     0.346711324999707     -2.213671057369623     1
H     1.6351619757370348     0.9441051054692121     -3.989241924895111     1
H     -2.069015814970823     -1.16856644084711     -4.6425298943736735     1
H     -2.423263223742232     -1.3822247760329835     -2.1937042880785897     1
H     2.4232592384643064     1.3822352091162877     2.193705084027483     1
H     2.069008168232779     1.1685767873482058     4.642530177164096     1
H     0.048937735877673236     0.028246412732371825     5.530313340218296     1
H     -1.6351576368485852     -0.9441151195158152     3.989239611204613     1
H     -0.048932311065960375     -0.028253874871953768     -5.530312232923615     1
S    1.3146806737279173    -3.1016598194673657    -0.9655543417648225    2
S    4.555321504598735    -4.9683388825699675    0.9655526072710489    2
C    2.1742989125323713    -3.60295338602844    -3.5964890672963397    2
C    3.1340145233436307    -4.132081179763641    -4.456605143989376    2
C    4.2708730483939    -4.796740916644529    -3.9518894628529058    2
C    4.483400883844988    -4.901190356393053    -2.58171320689255    2
C    1.3866018906649111    -3.168803406971523    2.5817133719708383    2
C    1.5991293224438248    -3.273256725635487    3.951889267098004    2
C    2.7359841700171756    -3.9379223658762474    4.456605564507998    2
C    3.6956973501029617    -4.467055024810489    3.5964887592424986    2
C    3.4768750743386083    -4.381715557439237    2.213672213873291    2
C    2.3475137599032254    -3.6887072920921216    1.6917199634307594    2
C    2.3672892918737114    -3.7314103955343687    0.26293046084319327    2
C    3.5027107915495077    -4.338587141858974    -0.26293027984204415    2
C    3.522486739902944    -4.381292176504588    -1.6917195197701054    2
C    2.393120194773065    -3.688288675000293    -2.213671057369623    2
H    1.2998380242629652    -3.090894894530788    -3.989241924895111    2
H    5.004015814970823    -5.20356644084711    -4.6425298943736735    2
H    5.358263223742232    -5.417224776032984    -2.1937042880785897    2
H    0.5117407615356937    -2.6527647908837126    2.193705084027483    2
H    0.865991831767221    -2.866423212651794    4.642530177164096    2
H    2.886062264122327    -4.006753587267628    5.530313340218296    2
H    4.5701576368485854    -4.979115119515815    3.989239611204613    2
H    2.9839323110659604    -4.063253874871954    -5.530312232923615    2


